(declare-fun e () String)
(declare-fun c () String)
(declare-fun b () String)
(declare-fun f () String)
(declare-fun a () String)
(declare-fun h () String)
(assert (= "d" (str.++ "c" h h "c")))
(assert (= (str.++ e "g" a "g") e))
(assert (= (str.++ f "e" c) b))

(check-sat)
